
Gurobi 10.0.1 (linux64) logging started Sun Nov 26 15:49:12 2023

Set parameter LogFile to value "ArtificialInstance/ExperimentV2/S3T3K3/AdRo/gurobiSpRo27.txt"
Gurobi Optimizer version 10.0.1 build v10.0.1rc0 (linux64)

CPU model: AMD EPYC 7H12 64-Core Processor, instruction set [SSE2|AVX|AVX2]
Thread count: 128 physical cores, 128 logical processors, using up to 32 threads

Academic license 656792 - for non-commercial use only - registered to b.___@student.vu.nl
Optimize a model with 12923 rows, 12505 columns and 48333 nonzeros
Model fingerprint: 0x510e4a27
Variable types: 1 continuous, 12504 integer (12504 binary)
Coefficient statistics:
  Matrix range     [1e+00, 4e+01]
  Objective range  [1e+00, 2e+01]
  Bounds range     [1e+00, 1e+00]
  RHS range        [1e+00, 1e+00]
Presolve removed 5386 rows and 5192 columns
Presolve time: 0.15s
Presolved: 7537 rows, 7313 columns, 28253 nonzeros
Variable types: 1 continuous, 7312 integer (7312 binary)

Root relaxation: objective 7.586303e+01, 2310 iterations, 0.10 seconds (0.06 work units)

    Nodes    |    Current Node    |     Objective Bounds      |     Work
 Expl Unexpl |  Obj  Depth IntInf | Incumbent    BestBd   Gap | It/Node Time

H    0     0                      75.8630298   69.25907  8.71%     -    0s
     0     0          -    0        75.86303   75.86303  0.00%     -    0s

Explored 1 nodes (3547 simplex iterations) in 0.31 seconds (0.21 work units)
Thread count was 32 (of 128 available processors)

Solution count 1: 75.863 

Optimal solution found (tolerance 1.00e-04)
Best objective 7.586302980743e+01, best bound 7.586302980743e+01, gap 0.0000%
